decision_x1=[0,2];
decision_x2=[0,2];
decision_x3=[0,2];
decision_x4=[0,2];
decision_x5=[0,2];
decision_x6=[0,2];
decision_x7=[0,2];
decision_x8=[0,2];
decision_x9=[0,2];
decision_x10=[0,2];
decision_x11=[0,2];
decision_x12=[0,2];
random_y1=[0,2];
random_y2=[0,2];
random_y3=[0,2];
random_y4=[0,2];
random_y5=[0,2];
random_y6=[0,2];
random_y7=[0,2];
random_y8=[0,2];
random_y9=[0,2];
random_y10=[0,2];
random_y11=[0,2];
random_y12=[0,2];
constraint_x3_x1=[
0,0,51|
0,1,46|
0,2,65|
1,0,43|
1,1,49|
1,2,31|
2,0,26|
2,1,15|
2,2,54|
];
constraint_x4_x3=[
0,0,89|
0,1,34|
0,2,63|
1,0,95|
1,1,74|
1,2,29|
2,0,57|
2,1,84|
2,2,96|
];
constraint_x5_x4=[
0,0,30|
0,1,38|
0,2,70|
1,0,0.75|
1,1,13|
1,2,84|
2,0,77|
2,1,68|
2,2,72|
];
constraint_x6_x1=[
0,0,32|
0,1,80|
0,2,33|
1,0,62|
1,1,83|
1,2,77|
2,0,82|
2,1,22|
2,2,98|
];
constraint_x6_x2=[
0,0,41|
0,1,23|
0,2,14|
1,0,14|
1,1,47|
1,2,68|
2,0,71|
2,1,33|
2,2,51|
];
constraint_x6_x3=[
0,0,89|
0,1,78|
0,2,45|
1,0,69|
1,1,64|
1,2,80|
2,0,29|
2,1,29|
2,2,75|
];
constraint_x6_x4=[
0,0,18|
0,1,74|
0,2,35|
1,0,3.5|
1,1,22|
1,2,69|
2,0,90|
2,1,20|
2,2,38|
];
constraint_x7_x3=[
0,0,15|
0,1,95|
0,2,44|
1,0,26|
1,1,57|
1,2,53|
2,0,39|
2,1,28|
2,2,15|
];
constraint_x7_x5=[
0,0,89|
0,1,9.7|
0,2,73|
1,0,30|
1,1,60|
1,2,12|
2,0,37|
2,1,35|
2,2,62|
];
constraint_x8_x1=[
0,0,14|
0,1,4.6|
0,2,24|
1,0,63|
1,1,44|
1,2,14|
2,0,5.1|
2,1,12|
2,2,45|
];
constraint_x8_x4=[
0,0,33|
0,1,57|
0,2,77|
1,0,66|
1,1,43|
1,2,15|
2,0,89|
2,1,43|
2,2,4.6|
];
constraint_x8_x5=[
0,0,57|
0,1,42|
0,2,66|
1,0,85|
1,1,80|
1,2,80|
2,0,97|
2,1,61|
2,2,57|
];
constraint_x9_x1=[
0,0,97|
0,1,89|
0,2,84|
1,0,76|
1,1,94|
1,2,89|
2,0,53|
2,1,19|
2,2,31|
];
constraint_x9_x2=[
0,0,75|
0,1,2.9|
0,2,16|
1,0,71|
1,1,95|
1,2,27|
2,0,43|
2,1,80|
2,2,74|
];
constraint_x9_x4=[
0,0,92|
0,1,97|
0,2,60|
1,0,61|
1,1,41|
1,2,19|
2,0,48|
2,1,31|
2,2,75|
];
constraint_x9_x5=[
0,0,96|
0,1,38|
0,2,85|
1,0,35|
1,1,43|
1,2,87|
2,0,25|
2,1,30|
2,2,82|
];
constraint_x10_x1=[
0,0,15|
0,1,31|
0,2,28|
1,0,16|
1,1,85|
1,2,77|
2,0,27|
2,1,32|
2,2,35|
];
constraint_x10_x2=[
0,0,98|
0,1,5.2|
0,2,55|
1,0,61|
1,1,72|
1,2,38|
2,0,75|
2,1,68|
2,2,77|
];
constraint_x10_x3=[
0,0,67|
0,1,71|
0,2,80|
1,0,7.7|
1,1,58|
1,2,50|
2,0,45|
2,1,67|
2,2,49|
];
constraint_x10_x5=[
0,0,3.4|
0,1,87|
0,2,74|
1,0,84|
1,1,8.1|
1,2,46|
2,0,2.4|
2,1,7.1|
2,2,60|
];
constraint_x10_x6=[
0,0,61|
0,1,8.5|
0,2,86|
1,0,96|
1,1,49|
1,2,52|
2,0,83|
2,1,79|
2,2,34|
];
constraint_x10_x7=[
0,0,32|
0,1,28|
0,2,4.1|
1,0,50|
1,1,14|
1,2,63|
2,0,76|
2,1,95|
2,2,52|
];
constraint_x10_x8=[
0,0,53|
0,1,42|
0,2,99|
1,0,29|
1,1,99|
1,2,86|
2,0,74|
2,1,99|
2,2,37|
];
constraint_x11_x1=[
0,0,42|
0,1,32|
0,2,73|
1,0,42|
1,1,0.32|
1,2,41|
2,0,64|
2,1,59|
2,2,65|
];
constraint_x11_x2=[
0,0,27|
0,1,36|
0,2,28|
1,0,9.2|
1,1,99|
1,2,29|
2,0,98|
2,1,68|
2,2,40|
];
constraint_x11_x5=[
0,0,88|
0,1,73|
0,2,71|
1,0,51|
1,1,88|
1,2,67|
2,0,53|
2,1,39|
2,2,31|
];
constraint_x11_x6=[
0,0,13|
0,1,82|
0,2,70|
1,0,28|
1,1,93|
1,2,9.9|
2,0,67|
2,1,16|
2,2,15|
];
constraint_x12_x4=[
0,0,44|
0,1,99|
0,2,86|
1,0,47|
1,1,93|
1,2,43|
2,0,6.4|
2,1,9.6|
2,2,2.3|
];
constraint_x12_x6=[
0,0,23|
0,1,53|
0,2,47|
1,0,30|
1,1,59|
1,2,25|
2,0,35|
2,1,55|
2,2,96|
];
constraint_x12_x7=[
0,0,2.1|
0,1,25|
0,2,36|
1,0,55|
1,1,82|
1,2,87|
2,0,94|
2,1,67|
2,2,99|
];
constraint_x12_x8=[
0,0,59|
0,1,15|
0,2,47|
1,0,54|
1,1,80|
1,2,18|
2,0,1.4|
2,1,24|
2,2,65|
];
constraint_x12_x9=[
0,0,22|
0,1,31|
0,2,34|
1,0,54|
1,1,13|
1,2,32|
2,0,3|
2,1,9.6|
2,2,29|
];
constraint_x12_x10=[
0,0,1.7|
0,1,2|
0,2,40|
1,0,4|
1,1,96|
1,2,14|
2,0,32|
2,1,92|
2,2,29|
];
constraint_x1_y1=[
0,0,76|
0,1,41|
0,2,68|
1,0,30|
1,1,36|
1,2,60|
2,0,35|
2,1,33|
2,2,53|
];
constraint_x2_y2=[
0,0,69|
0,1,60|
0,2,10|
1,0,3.8|
1,1,87|
1,2,63|
2,0,93|
2,1,38|
2,2,81|
];
constraint_x3_y3=[
0,0,56|
0,1,73|
0,2,68|
1,0,70|
1,1,35|
1,2,68|
2,0,49|
2,1,88|
2,2,58|
];
constraint_x4_y4=[
0,0,86|
0,1,80|
0,2,21|
1,0,37|
1,1,62|
1,2,53|
2,0,84|
2,1,89|
2,2,51|
];
constraint_x5_y5=[
0,0,39|
0,1,47|
0,2,27|
1,0,63|
1,1,62|
1,2,17|
2,0,81|
2,1,80|
2,2,60|
];
constraint_x6_y6=[
0,0,85|
0,1,7.9|
0,2,33|
1,0,48|
1,1,8.7|
1,2,24|
2,0,35|
2,1,80|
2,2,11|
];
constraint_x7_y7=[
0,0,71|
0,1,72|
0,2,33|
1,0,76|
1,1,2|
1,2,95|
2,0,41|
2,1,47|
2,2,85|
];
constraint_x8_y8=[
0,0,57|
0,1,53|
0,2,74|
1,0,51|
1,1,86|
1,2,45|
2,0,13|
2,1,18|
2,2,66|
];
constraint_x9_y9=[
0,0,70|
0,1,85|
0,2,20|
1,0,19|
1,1,96|
1,2,5.5|
2,0,39|
2,1,68|
2,2,10|
];
constraint_x10_y10=[
0,0,3.1|
0,1,98|
0,2,81|
1,0,6.4|
1,1,0.83|
1,2,1.9|
2,0,23|
2,1,13|
2,2,7.1|
];
constraint_x11_y11=[
0,0,98|
0,1,43|
0,2,3.8|
1,0,34|
1,1,50|
1,2,73|
2,0,75|
2,1,29|
2,2,54|
];
constraint_x12_y12=[
0,0,58|
0,1,31|
0,2,37|
1,0,8.9|
1,1,51|
1,2,65|
2,0,34|
2,1,79|
2,2,68|
];
initial_distribution_y1=[0.21,0.55,0.24];
initial_distribution_y2=[0.41,0.094,0.5];
initial_distribution_y3=[0.037,0.47,0.49];
initial_distribution_y4=[0.68,0.27,0.052];
initial_distribution_y5=[0.57,0.2,0.23];
initial_distribution_y6=[0.24,0.45,0.31];
initial_distribution_y7=[0.075,0.043,0.88];
initial_distribution_y8=[0.25,0.36,0.38];
initial_distribution_y9=[0.14,0.11,0.74];
initial_distribution_y10=[0.39,0.28,0.33];
initial_distribution_y11=[0.53,0.1,0.36];
initial_distribution_y12=[0.15,0.26,0.59];
transition_y1=[
0.5,0.35,0.15|
0.27,0.34,0.38|
0.25,0.51,0.23|
];
transition_y2=[
0.23,0.27,0.49|
0.49,0.42,0.093|
0.45,0.43,0.12|
];
transition_y3=[
0.41,0.5,0.092|
0.14,0.48,0.38|
0.4,0.24,0.36|
];
transition_y4=[
0.34,0.27,0.39|
0.39,0.25,0.36|
0.51,0.24,0.25|
];
transition_y5=[
0.31,0.22,0.48|
0.13,0.43,0.44|
0.37,0.2,0.44|
];
transition_y6=[
0.23,0.46,0.31|
0.64,0.13,0.23|
0.54,0.064,0.4|
];
transition_y7=[
0.49,0.36,0.15|
0.011,0.24,0.75|
0.13,0.36,0.51|
];
transition_y8=[
0.094,0.8,0.11|
0.049,0.49,0.46|
0.39,0.42,0.18|
];
transition_y9=[
0.25,0.6,0.15|
0.21,0.49,0.3|
0.12,0.5,0.38|
];
transition_y10=[
0.33,0.35,0.32|
0.42,0.16,0.42|
0.32,0.38,0.3|
];
transition_y11=[
0.37,0.4,0.23|
0.23,0.035,0.73|
0.26,0.47,0.27|
];
transition_y12=[
0.36,0.25,0.39|
0.41,0.24,0.34|
0.5,0.4,0.11|
];
